c t pwmc
c file mc2024_track4_015.cnf
p cnf 63 66
c p weight 43 0.24538596 0
c p weight -43 0.75461404 0
c p weight 58 0.37502720 0
c p weight -58 0.62497280 0
c p weight 1 1 0
c p weight -1 1 0
c p weight 2 1 0
c p weight -2 1 0
c p weight 3 1 0
c p weight -3 1 0
c p weight 4 1 0
c p weight -4 1 0
c p weight 5 1 0
c p weight -5 1 0
c p weight 6 1 0
c p weight -6 1 0
c p weight 7 1 0
c p weight -7 1 0
c p weight 8 1 0
c p weight -8 1 0
c p weight 9 1 0
c p weight -9 1 0
c p weight 10 1 0
c p weight -10 1 0
c p weight 11 1 0
c p weight -11 1 0
c p weight 12 1 0
c p weight -12 1 0
c p weight 13 1 0
c p weight -13 1 0
c p weight 14 1 0
c p weight -14 1 0
c p weight 15 1 0
c p weight -15 1 0
c p weight 16 1 0
c p weight -16 1 0
c p weight 17 1 0
c p weight -17 1 0
c p weight 18 1 0
c p weight -18 1 0
c p weight 19 1 0
c p weight -19 1 0
c p weight 20 1 0
c p weight -20 1 0
c p weight 21 1 0
c p weight -21 1 0
c p weight 22 1 0
c p weight -22 1 0
c p weight 23 1 0
c p weight -23 1 0
c p weight 24 1 0
c p weight -24 1 0
c p weight 25 1 0
c p weight -25 1 0
c p weight 26 1 0
c p weight -26 1 0
c p weight 27 1 0
c p weight -27 1 0
c p weight 28 1 0
c p weight -28 1 0
c p weight 29 1 0
c p weight -29 1 0
c p weight 30 1 0
c p weight -30 1 0
c p weight 31 1 0
c p weight -31 1 0
c p weight 32 1 0
c p weight -32 1 0
c p weight 33 1 0
c p weight -33 1 0
c p weight 34 1 0
c p weight -34 1 0
c p weight 35 1 0
c p weight -35 1 0
c p weight 36 1 0
c p weight -36 1 0
c p weight 37 1 0
c p weight -37 1 0
c p weight 38 1 0
c p weight -38 1 0
c p weight 39 1 0
c p weight -39 1 0
c p weight 40 1 0
c p weight -40 1 0
c p weight 41 1 0
c p weight -41 1 0
c p weight 42 1 0
c p weight -42 1 0
c p weight 44 1 0
c p weight -44 1 0
c p weight 45 1 0
c p weight -45 1 0
c p weight 46 1 0
c p weight -46 1 0
c p weight 47 1 0
c p weight -47 1 0
c p weight 48 1 0
c p weight -48 1 0
c p weight 49 1 0
c p weight -49 1 0
c p weight 50 1 0
c p weight -50 1 0
c p weight 51 1 0
c p weight -51 1 0
c p weight 52 1 0
c p weight -52 1 0
c p weight 53 1 0
c p weight -53 1 0
c p weight 54 1 0
c p weight -54 1 0
c p weight 55 1 0
c p weight -55 1 0
c p weight 56 1 0
c p weight -56 1 0
c p weight 57 1 0
c p weight -57 1 0
c p weight 59 1 0
c p weight -59 1 0
c p weight 60 1 0
c p weight -60 1 0
c p weight 61 1 0
c p weight -61 1 0
c p weight 62 1 0
c p weight -62 1 0
c p weight 63 1 0
c p weight -63 1 0
12 41 28 0
33 -47 16 0
-38 -56 -50 0
-5 -11 -39 0
-37 -19 46 0
57 -53 60 0
48 -3 -9 0
-4 8 -52 0
29 45 -18 0
-40 14 -17 0
31 59 -58 0
-22 43 -20 0
-54 -21 51 0
27 36 61 0
-15 2 26 0
55 -6 -42 0
32 -35 30 0
-24 -25 49 0
-34 62 -13 0
-44 -23 -10 0
-1 -7 63 0
24 -57 -29 0
18 40 35 0
44 34 6 0
-31 -62 21 0
13 -61 56 0
-14 54 53 0
7 -30 -51 0
-28 19 39 0
52 -41 -49 0
47 -55 11 0
-2 -32 -8 0
1 38 -46 0
50 -63 -26 0
37 20 17 0
-27 5 58 0
22 25 -16 0
9 -43 15 0
42 23 -45 0
-59 4 -12 0
-33 -60 -36 0
3 10 -48 0
28 -1 52 0
33 54 2 0
-45 -59 43 0
-7 36 -41 0
-8 57 42 0
26 -32 -62 0
-34 -39 47 0
-20 16 18 0
-30 31 -24 0
-40 38 60 0
-46 63 55 0
53 -3 29 0
49 4 23 0
13 -58 -11 0
48 -35 -50 0
-15 -37 21 0
-44 61 19 0
-51 -25 -9 0
-14 6 56 0
5 -10 22 0
12 -27 17 0
-29 -49 -63 0
-31 32 -22 0
-47 59 -53 0
c p show 43 58 0
